30 61
28
9 24 0 0
9 8 0 24
9 11 4 34
9 17 19 3
4 24 0 37
4 8 12 25
1 6 15 18
1 5 0 32
4 17 9 0
3 6 12 19
3 5 1 32
12 5 4 56
12 13 16 34
14 14 16 20
2 14 28 3
2 2 11 17
8 3 16 0
8 9 10 47
12 14 18 47
12 2 4 45
6 3 24 0
6 9 4 47
2 5 16 56
2 13 28 34
3 18 13 0
3 14 9 20
3 16 16 3
3 12 13 33
